N = 6;
H = 6;
T = 2;

avail = array3d(1..N, 1..H, 1..T, [3, 4, 1, 7, 8, 1, 8, 7, 0, 2, 0, 1, 5, 9, 1, 7, 2, 2, 1, 0, 1, 9, 6, 7, 6, 7, 1, 1, 4, 10, 5, 3, 3, 10, 7, 2, 6, 10, 6, 8, 5, 3, 5, 9, 6, 8, 10, 3, 7, 2, 2, 3, 6, 5, 4, 8, 9, 8, 2, 0, 3, 5, 9, 0, 7, 8, 4, 8, 3, 6, 8, 2]);

r = array2d(1..H, 1..T, [1, 1, 2, 0, 1, 1, 1, 0, 1, 2, 0, 1]);
